(set-info :source |
 Generated by Alive 0.1
 More info in N. P. Lopes, D. Menendez, S. Nagarakatte, J. Regehr.
 Provably Correct Peephole Optimizations with Alive. In PLDI'15.
|)

(set-info :status unknown)
(declare-fun %Y () (_ BitVec 1))
(declare-fun %X () (_ BitVec 1))
(assert
 (let (($x427795 (and (distinct (bvudiv ((_ zero_extend 44) %X) ((_ zero_extend 44) %Y)) ((_ zero_extend 44) (bvudiv %X %Y))) true)))
 (let ((?x428163 ((_ zero_extend 44) %Y)))
 (let (($x427885 (and (distinct ?x428163 (_ bv0 45)) true)))
 (and $x427885 $x427795)))))
(check-sat)
